p tw 43 47
1 2
2 13
3 4
4 5
5 6
6 7
7 8
7 9
8 9
9 10
10 11
11 12
12 14
13 24
14 15
15 16
16 17
17 18
18 19
19 20
20 21
20 34
21 22
22 23
22 34
23 25
24 35
25 26
26 27
27 28
28 29
29 30
30 31
31 32
31 34
32 33
33 34
34 36
35 39
36 37
37 38
39 40
40 41
41 42
42 43
42 9
43 3
